p tw 700 10501 7 
1 8 
1 81 
2 9 
2 10 
2 82 
3 7 
3 10 
3 311 
4 8 
4 9 
4 312 
5 7 
5 9 
5 581 
6 8 
6 10 
6 582 
11 17 
11 18 
11 491 
12 19 
12 20 
12 492 
13 17 
13 20 
13 631 
14 18 
14 19 
14 632 
15 17 
15 19 
15 661 
16 18 
16 20 
16 662 
21 27 
21 28 
21 131 
22 29 
22 30 
22 132 
23 27 
23 30 
23 431 
24 28 
24 29 
24 432 
25 27 
25 29 
25 671 
26 28 
26 30 
26 672 
31 37 
31 38 
31 591 
32 39 
32 40 
32 592 
33 37 
33 40 
33 611 
34 38 
34 39 
34 612 
35 37 
35 39 
35 621 
36 38 
36 40 
36 622 
41 47 
41 48 
41 181 
42 49 
42 50 
42 182 
43 47 
43 50 
43 501 
44 48 
44 49 
44 502 
45 47 
45 49 
45 633 
46 48 
46 50 
46 634 
51 57 
51 58 
51 191 
52 59 
52 60 
52 192 
53 57 
53 60 
53 361 
54 58 
54 59 
54 362 
55 57 
55 59 
55 401 
56 58 
56 60 
56 402 
61 67 
61 68 
61 411 
62 69 
62 70 
62 412 
63 67 
63 70 
63 521 
64 68 
64 69 
64 522 
65 67 
65 69 
65 613 
66 68 
66 70 
66 614 
71 77 
71 78 
71 91 
72 79 
72 80 
72 92 
73 77 
73 80 
73 221 
74 78 
74 79 
74 222 
75 77 
75 79 
75 381 
76 78 
76 80 
76 382 
81 87 
81 88 
82 89 
82 90 
83 87 
83 90 
83 551 
84 88 
84 89 
84 552 
85 87 
85 89 
85 601 
86 88 
86 90 
86 602 
91 97 
91 98 
92 99 
92 100 
93 97 
93 100 
93 493 
94 98 
94 99 
94 494 
95 97 
95 99 
95 571 
96 98 
96 100 
96 572 
101 107 
101 108 
101 111 
102 109 
102 110 
102 112 
103 107 
103 110 
103 201 
104 108 
104 109 
104 202 
105 107 
105 109 
105 261 
106 108 
106 110 
106 262 
111 117 
111 118 
112 119 
112 120 
113 117 
113 120 
113 301 
114 118 
114 119 
114 302 
115 117 
115 119 
115 451 
116 118 
116 120 
116 452 
121 127 
121 128 
121 441 
122 129 
122 130 
122 442 
123 127 
123 130 
123 593 
124 128 
124 129 
124 594 
125 127 
125 129 
125 623 
126 128 
126 130 
126 624 
131 137 
131 138 
132 139 
132 140 
133 137 
133 140 
133 541 
134 138 
134 139 
134 542 
135 137 
135 139 
135 681 
136 138 
136 140 
136 682 
141 147 
141 148 
141 303 
142 149 
142 150 
142 304 
143 147 
143 150 
143 553 
144 148 
144 149 
144 554 
145 147 
145 149 
145 673 
146 148 
146 150 
146 674 
151 157 
151 158 
151 251 
152 159 
152 160 
152 252 
153 157 
153 160 
153 651 
154 158 
154 159 
154 652 
155 157 
155 159 
155 683 
156 158 
156 160 
156 684 
161 167 
161 168 
161 203 
162 169 
162 170 
162 204 
163 167 
163 170 
163 461 
164 168 
164 169 
164 462 
165 167 
165 169 
165 543 
166 168 
166 170 
166 544 
171 177 
171 178 
171 403 
172 179 
172 180 
172 404 
173 177 
173 180 
173 583 
174 178 
174 179 
174 584 
175 177 
175 179 
175 641 
176 178 
176 180 
176 642 
181 187 
181 188 
182 189 
182 190 
183 187 
183 190 
183 405 
184 188 
184 189 
184 406 
185 187 
185 189 
185 433 
186 188 
186 190 
186 434 
191 197 
191 198 
192 199 
192 200 
193 197 
193 200 
193 291 
194 198 
194 199 
194 292 
195 197 
195 199 
195 573 
196 198 
196 200 
196 574 
201 207 
201 208 
202 209 
202 210 
203 207 
203 210 
204 208 
204 209 
205 207 
205 209 
205 271 
206 208 
206 210 
206 272 
211 217 
211 218 
211 453 
212 219 
212 220 
212 454 
213 217 
213 220 
213 503 
214 218 
214 219 
214 504 
215 217 
215 219 
215 691 
216 218 
216 220 
216 692 
221 227 
221 228 
222 229 
222 230 
223 227 
223 230 
223 321 
224 228 
224 229 
224 322 
225 227 
225 229 
225 511 
226 228 
226 230 
226 512 
231 237 
231 238 
231 273 
232 239 
232 240 
232 274 
233 237 
233 240 
233 331 
234 238 
234 239 
234 332 
235 237 
235 239 
235 513 
236 238 
236 240 
236 514 
241 247 
241 248 
241 341 
242 249 
242 250 
242 342 
243 247 
243 250 
243 363 
244 248 
244 249 
244 364 
245 247 
245 249 
245 421 
246 248 
246 250 
246 422 
251 257 
251 258 
252 259 
252 260 
253 257 
253 260 
253 481 
254 258 
254 259 
254 482 
255 257 
255 259 
255 561 
256 258 
256 260 
256 562 
261 267 
261 268 
262 269 
262 270 
263 267 
263 270 
263 275 
264 268 
264 269 
264 276 
265 267 
265 269 
265 545 
266 268 
266 270 
266 546 
271 277 
271 278 
272 279 
272 280 
273 277 
273 280 
274 278 
274 279 
275 277 
275 279 
276 278 
276 280 
281 287 
281 288 
281 323 
282 289 
282 290 
282 324 
283 287 
283 290 
283 333 
284 288 
284 289 
284 334 
285 287 
285 289 
285 663 
286 288 
286 290 
286 664 
291 297 
291 298 
292 299 
292 300 
293 297 
293 300 
293 365 
294 298 
294 299 
294 366 
295 297 
295 299 
295 675 
296 298 
296 300 
296 676 
301 307 
301 308 
302 309 
302 310 
303 307 
303 310 
304 308 
304 309 
305 307 
305 309 
305 585 
306 308 
306 310 
306 586 
311 317 
311 318 
312 319 
312 320 
313 317 
313 320 
313 523 
314 318 
314 319 
314 524 
315 317 
315 319 
315 643 
316 318 
316 320 
316 644 
321 327 
321 328 
322 329 
322 330 
323 327 
323 330 
324 328 
324 329 
325 327 
325 329 
325 563 
326 328 
326 330 
326 564 
331 337 
331 338 
332 339 
332 340 
333 337 
333 340 
334 338 
334 339 
335 337 
335 339 
335 343 
336 338 
336 340 
336 344 
341 347 
341 348 
342 349 
342 350 
343 347 
343 350 
344 348 
344 349 
345 347 
345 349 
345 483 
346 348 
346 350 
346 484 
351 357 
351 358 
351 371 
352 359 
352 360 
352 372 
353 357 
353 360 
353 383 
354 358 
354 359 
354 384 
355 357 
355 359 
355 443 
356 358 
356 360 
356 444 
361 367 
361 368 
362 369 
362 370 
363 367 
363 370 
364 368 
364 369 
365 367 
365 369 
366 368 
366 370 
371 377 
371 378 
372 379 
372 380 
373 377 
373 380 
373 413 
374 378 
374 379 
374 414 
375 377 
375 379 
375 485 
376 378 
376 380 
376 486 
381 387 
381 388 
382 389 
382 390 
383 387 
383 390 
384 388 
384 389 
385 387 
385 389 
385 423 
386 388 
386 390 
386 424 
391 397 
391 398 
391 595 
392 399 
392 400 
392 596 
393 397 
393 400 
393 603 
394 398 
394 399 
394 604 
395 397 
395 399 
395 653 
396 398 
396 400 
396 654 
401 407 
401 408 
402 409 
402 410 
403 407 
403 410 
404 408 
404 409 
405 407 
405 409 
406 408 
406 410 
411 417 
411 418 
412 419 
412 420 
413 417 
413 420 
414 418 
414 419 
415 417 
415 419 
415 693 
416 418 
416 420 
416 694 
421 427 
421 428 
422 429 
422 430 
423 427 
423 430 
424 428 
424 429 
425 427 
425 429 
425 615 
426 428 
426 430 
426 616 
431 437 
431 438 
432 439 
432 440 
433 437 
433 440 
434 438 
434 439 
435 437 
435 439 
435 575 
436 438 
436 440 
436 576 
441 447 
441 448 
442 449 
442 450 
443 447 
443 450 
444 448 
444 449 
445 447 
445 449 
445 645 
446 448 
446 450 
446 646 
451 457 
451 458 
452 459 
452 460 
453 457 
453 460 
454 458 
454 459 
455 457 
455 459 
455 515 
456 458 
456 460 
456 516 
461 467 
461 468 
462 469 
462 470 
463 467 
463 470 
463 495 
464 468 
464 469 
464 496 
465 467 
465 469 
465 531 
466 468 
466 470 
466 532 
471 477 
471 478 
471 505 
472 479 
472 480 
472 506 
473 477 
473 480 
473 525 
474 478 
474 479 
474 526 
475 477 
475 479 
475 605 
476 478 
476 480 
476 606 
481 487 
481 488 
482 489 
482 490 
483 487 
483 490 
484 488 
484 489 
485 487 
485 489 
486 488 
486 490 
491 497 
491 498 
492 499 
492 500 
493 497 
493 500 
494 498 
494 499 
495 497 
495 499 
496 498 
496 500 
501 507 
501 508 
502 509 
502 510 
503 507 
503 510 
504 508 
504 509 
505 507 
505 509 
506 508 
506 510 
511 517 
511 518 
512 519 
512 520 
513 517 
513 520 
514 518 
514 519 
515 517 
515 519 
516 518 
516 520 
521 527 
521 528 
522 529 
522 530 
523 527 
523 530 
524 528 
524 529 
525 527 
525 529 
526 528 
526 530 
531 537 
531 538 
532 539 
532 540 
533 537 
533 540 
533 685 
534 538 
534 539 
534 686 
535 537 
535 539 
535 695 
536 538 
536 540 
536 696 
541 547 
541 548 
542 549 
542 550 
543 547 
543 550 
544 548 
544 549 
545 547 
545 549 
546 548 
546 550 
551 557 
551 558 
552 559 
552 560 
553 557 
553 560 
554 558 
554 559 
555 557 
555 559 
555 655 
556 558 
556 560 
556 656 
561 567 
561 568 
562 569 
562 570 
563 567 
563 570 
564 568 
564 569 
565 567 
565 569 
565 665 
566 568 
566 570 
566 666 
571 577 
571 578 
572 579 
572 580 
573 577 
573 580 
574 578 
574 579 
575 577 
575 579 
576 578 
576 580 
581 587 
581 588 
582 589 
582 590 
583 587 
583 590 
584 588 
584 589 
585 587 
585 589 
586 588 
586 590 
591 597 
591 598 
592 599 
592 600 
593 597 
593 600 
594 598 
594 599 
595 597 
595 599 
596 598 
596 600 
601 607 
601 608 
602 609 
602 610 
603 607 
603 610 
604 608 
604 609 
605 607 
605 609 
606 608 
606 610 
611 617 
611 618 
612 619 
612 620 
613 617 
613 620 
614 618 
614 619 
615 617 
615 619 
616 618 
616 620 
621 627 
621 628 
622 629 
622 630 
623 627 
623 630 
624 628 
624 629 
625 627 
625 629 
625 635 
626 628 
626 630 
626 636 
631 637 
631 638 
632 639 
632 640 
633 637 
633 640 
634 638 
634 639 
635 637 
635 639 
636 638 
636 640 
641 647 
641 648 
642 649 
642 650 
643 647 
643 650 
644 648 
644 649 
645 647 
645 649 
646 648 
646 650 
651 657 
651 658 
652 659 
652 660 
653 657 
653 660 
654 658 
654 659 
655 657 
655 659 
656 658 
656 660 
661 667 
661 668 
662 669 
662 670 
663 667 
663 670 
664 668 
664 669 
665 667 
665 669 
666 668 
666 670 
671 677 
671 678 
672 679 
672 680 
673 677 
673 680 
674 678 
674 679 
675 677 
675 679 
676 678 
676 680 
681 687 
681 688 
682 689 
682 690 
683 687 
683 690 
684 688 
684 689 
685 687 
685 689 
686 688 
686 690 
691 697 
691 698 
692 699 
692 700 
693 697 
693 700 
694 698 
694 699 
695 697 
695 699 
696 698 
696 700 
